c "156730.clq"
p edge 139 540
e 1 5
e 1 6
e 1 7
e 1 55
e 1 92
e 1 130
e 2 5
e 2 6
e 2 7
e 2 12
e 2 25
e 2 31
e 2 33
e 2 43
e 2 68
e 2 120
e 2 138
e 3 5
e 3 6
e 3 8
e 3 11
e 3 13
e 3 15
e 3 18
e 3 20
e 3 24
e 3 27
e 3 37
e 3 38
e 3 40
e 3 45
e 3 57
e 3 66
e 3 69
e 3 81
e 3 134
e 4 5
e 4 8
e 4 10
e 4 13
e 4 14
e 4 15
e 4 17
e 4 22
e 4 51
e 4 58
e 4 77
e 4 81
e 4 98
e 4 114
e 4 136
e 5 6
e 5 7
e 5 8
e 5 9
e 5 11
e 5 12
e 5 16
e 5 19
e 5 23
e 5 25
e 5 30
e 5 31
e 5 34
e 5 39
e 5 44
e 5 49
e 5 53
e 5 55
e 5 56
e 5 79
e 5 88
e 5 91
e 5 94
e 5 96
e 5 98
e 5 102
e 5 112
e 5 116
e 5 117
e 5 120
e 5 128
e 5 133
e 5 137
e 5 139
e 6 7
e 6 8
e 6 9
e 6 11
e 6 12
e 6 14
e 6 17
e 6 18
e 6 22
e 6 32
e 6 35
e 6 41
e 6 43
e 6 46
e 6 48
e 6 49
e 6 54
e 6 55
e 6 56
e 6 60
e 6 65
e 6 67
e 6 70
e 6 76
e 6 82
e 6 85
e 6 86
e 6 87
e 6 93
e 6 100
e 6 105
e 6 110
e 6 119
e 6 122
e 6 128
e 7 9
e 7 10
e 7 13
e 7 17
e 7 22
e 7 24
e 7 25
e 7 26
e 7 28
e 7 44
e 7 46
e 7 48
e 7 54
e 7 67
e 7 71
e 7 80
e 7 81
e 7 85
e 7 97
e 7 113
e 7 123
e 7 130
e 8 9
e 8 10
e 8 16
e 8 18
e 8 19
e 8 24
e 8 28
e 8 29
e 8 30
e 8 36
e 8 39
e 8 50
e 8 68
e 8 69
e 8 84
e 8 123
e 8 129
e 8 132
e 8 135
e 8 136
e 9 10
e 9 12
e 9 13
e 9 14
e 9 15
e 9 20
e 9 24
e 9 29
e 9 30
e 9 33
e 9 39
e 9 41
e 9 47
e 9 62
e 9 65
e 9 76
e 9 77
e 9 78
e 9 86
e 9 95
e 9 97
e 9 99
e 9 100
e 9 101
e 9 102
e 9 103
e 9 111
e 9 125
e 10 11
e 10 16
e 10 19
e 10 26
e 10 27
e 10 30
e 10 35
e 10 49
e 10 53
e 10 64
e 10 74
e 10 78
e 10 101
e 10 118
e 11 15
e 11 21
e 11 27
e 11 40
e 11 42
e 11 44
e 11 45
e 11 57
e 11 58
e 11 59
e 11 60
e 11 66
e 11 69
e 11 79
e 11 95
e 11 96
e 11 97
e 11 101
e 11 105
e 11 108
e 11 126
e 11 133
e 11 139
e 12 21
e 12 23
e 12 41
e 12 52
e 12 75
e 12 76
e 12 95
e 12 121
e 12 130
e 12 136
e 13 14
e 13 16
e 13 17
e 13 18
e 13 19
e 13 20
e 13 23
e 13 25
e 13 26
e 13 37
e 13 38
e 13 40
e 13 48
e 13 58
e 13 64
e 13 70
e 13 85
e 13 100
e 13 101
e 13 123
e 13 124
e 13 129
e 13 132
e 14 28
e 14 32
e 14 36
e 14 69
e 14 88
e 14 102
e 14 120
e 14 121
e 14 136
e 15 22
e 15 49
e 15 56
e 15 62
e 15 65
e 15 74
e 15 77
e 15 95
e 15 96
e 15 109
e 15 114
e 15 126
e 16 21
e 16 28
e 16 32
e 16 46
e 16 60
e 16 66
e 16 81
e 16 94
e 16 98
e 16 112
e 16 124
e 16 127
e 16 134
e 17 27
e 17 34
e 17 47
e 17 51
e 17 64
e 17 110
e 17 127
e 17 138
e 17 139
e 18 20
e 18 71
e 18 113
e 19 21
e 19 29
e 19 42
e 19 64
e 19 74
e 19 87
e 19 112
e 19 116
e 19 125
e 20 23
e 20 33
e 20 36
e 20 50
e 21 32
e 21 37
e 21 38
e 21 61
e 21 72
e 22 63
e 22 70
e 22 73
e 22 82
e 22 129
e 23 29
e 23 31
e 23 42
e 23 43
e 23 61
e 23 84
e 23 89
e 23 91
e 23 94
e 23 118
e 23 120
e 24 26
e 24 39
e 24 59
e 24 63
e 25 37
e 25 52
e 25 107
e 26 54
e 27 38
e 27 46
e 28 31
e 28 83
e 29 33
e 29 35
e 29 48
e 29 50
e 29 55
e 29 66
e 29 82
e 29 99
e 29 109
e 29 114
e 30 40
e 30 41
e 30 67
e 30 73
e 30 75
e 30 80
e 30 103
e 30 118
e 31 34
e 31 35
e 31 54
e 31 56
e 31 61
e 31 98
e 31 119
e 31 121
e 32 45
e 32 119
e 33 34
e 33 36
e 33 47
e 33 52
e 33 107
e 33 115
e 33 134
e 33 137
e 34 42
e 34 50
e 34 52
e 34 93
e 34 108
e 35 45
e 35 79
e 35 104
e 35 110
e 35 131
e 36 43
e 36 51
e 36 62
e 36 122
e 37 112
e 38 104
e 39 89
e 39 132
e 40 57
e 40 78
e 41 47
e 41 59
e 41 68
e 41 94
e 41 113
e 42 62
e 42 72
e 42 87
e 43 44
e 43 61
e 44 51
e 44 63
e 44 70
e 44 100
e 44 126
e 45 72
e 45 78
e 46 90
e 46 108
e 47 57
e 47 58
e 47 73
e 47 90
e 47 137
e 48 53
e 48 59
e 48 72
e 48 79
e 48 88
e 48 92
e 49 63
e 49 65
e 49 85
e 49 122
e 49 131
e 49 133
e 50 53
e 50 68
e 52 84
e 52 131
e 53 80
e 53 96
e 53 111
e 54 60
e 54 67
e 54 71
e 54 90
e 54 91
e 54 106
e 54 114
e 55 80
e 55 115
e 55 132
e 57 74
e 57 92
e 57 106
e 57 116
e 58 99
e 58 113
e 59 103
e 59 115
e 59 121
e 61 82
e 63 71
e 63 73
e 63 88
e 64 105
e 65 89
e 65 93
e 66 83
e 66 90
e 66 103
e 66 126
e 66 135
e 67 75
e 67 102
e 67 124
e 68 75
e 68 83
e 68 84
e 68 89
e 68 107
e 69 117
e 70 86
e 70 93
e 70 118
e 72 77
e 72 104
e 73 76
e 73 86
e 73 91
e 73 125
e 73 127
e 75 128
e 76 108
e 78 116
e 78 135
e 80 83
e 81 115
e 82 87
e 82 92
e 82 125
e 83 97
e 83 109
e 84 138
e 85 110
e 88 109
e 90 128
e 91 106
e 92 135
e 93 111
e 93 130
e 96 106
e 96 123
e 98 99
e 99 104
e 99 105
e 100 107
e 101 119
e 101 129
e 101 131
e 105 117
e 108 111
e 108 117
e 110 124
e 115 122
e 116 137
e 117 139
e 118 127
e 123 133
e 130 134
e 135 138
